<number of tasks>
50

<cycle time>
1000

<order strength>
0.896


<task times>
1 432
2 385
3 259
4 479
5 728
6 544
7 472
8 611
9 413
10 491
11 490
12 561
13 363
14 449
15 442
16 268
17 377
18 590
19 535
20 403
21 567
22 519
23 404
24 382
25 742
26 636
27 447
28 389
29 664
30 515
31 388
32 498
33 812
34 656
35 548
36 528
37 369
38 484
39 497
40 522
41 302
42 408
43 572
44 477
45 563
46 443
47 442
48 509
49 406
50 533

<precedence relations>
1,4
1,5
1,6
1,7
2,4
2,5
2,6
2,7
3,4
3,5
3,6
3,7
4,8
4,9
4,10
5,8
5,9
5,10
6,8
6,9
6,10
7,8
7,9
7,10
8,11
9,11
10,11
11,12
11,13
11,14
12,15
12,16
12,17
13,15
13,16
13,17
14,15
14,16
15,19
16,18
16,19
17,18
17,19
18,20
18,21
18,22
19,21
19,22
20,23
20,24
21,23
22,23
22,24
23,25
23,26
23,27
24,25
24,26
24,27
25,28
25,29
26,28
26,29
27,28
28,30
28,31
28,32
29,30
29,31
30,33
30,34
31,35
32,44
32,46
33,35
33,37
33,38
34,35
34,36
34,37
34,38
34,39
35,40
35,41
35,45
36,48
36,50
37,42
38,40
38,42
39,48
40,46
40,47
42,43
42,44
43,45
43,46
44,47
45,49
46,48
46,49
46,50

<end>
